<number of tasks>
20

<cycle time>
1000

<order strength>
0,184


<task times>
1 83
2 42
3 431
4 364
5 232
6 129
7 42
8 91
9 78
10 56
11 286
12 43
13 282
14 208
15 116
16 162
17 475
18 68
19 195
20 75

<precedence relations>
1,9
2,8
3,10
5,6
5,7
6,11
7,12
10,13
12,14
12,15
12,16
13,17
15,20
17,18
17,19

<end>
